Ni   C    O    H                        
   1.0000000000000000     
     9.9560634791065894    0.0000000000000000    0.0000000000000000
     4.9780317395532903    8.6222038945967903    0.0000000000000000
     0.0000000000000000    0.0000000000000000   36.0968188426423993
   Ni
    64
Selective dynamics
Direct
  0.0000000000000000  0.0000000000000000  0.4155490018494348   F   F   F
  0.2499999879694741  0.0000000000000000  0.4155490018494348   F   F   F
  0.4999999759389553  0.0000000000000000  0.4155490018494348   F   F   F
  0.7499999639084294  0.0000000000000000  0.4155490018494348   F   F   F
  0.9999999999953388  0.2499999879788035  0.4155490018494348   F   F   F
  0.2499999879648129  0.2499999879788035  0.4155490018494348   F   F   F
  0.4999999759342941  0.2499999879788035  0.4155490018494348   F   F   F
  0.7499999639037682  0.2499999879788035  0.4155490018494348   F   F   F
  0.9999999999906706  0.4999999759576070  0.4155490018494348   F   F   F
  0.2499999879601518  0.4999999759576070  0.4155490018494348   F   F   F
  0.4999999759296259  0.4999999759576070  0.4155490018494348   F   F   F
  0.7499999638991071  0.4999999759576070  0.4155490018494348   F   F   F
  0.9999999999860094  0.7499999639364177  0.4155490018494348   F   F   F
  0.2499999879554835  0.7499999639364177  0.4155490018494348   F   F   F
  0.4999999759249647  0.7499999639364177  0.4155490018494348   F   F   F
  0.7499999643966504  0.7499999639364177  0.4155490018494348   F   F   F
  0.0833329959681848  0.0833329960394806  0.4718500021913030   F   F   F
  0.3333329839376660  0.0833329960394806  0.4718500021913030   F   F   F
  0.5833329719071401  0.0833329960394806  0.4718500021913030   F   F   F
  0.8333329598766213  0.0833329960394806  0.4718500021913030   F   F   F
  0.0833329959635236  0.3333329840182842  0.4718500021913030   F   F   F
  0.3333329839330048  0.3333329840182842  0.4718500021913030   F   F   F
  0.5833329719024789  0.3333329840182842  0.4718500021913030   F   F   F
  0.8333329598719530  0.3333329840182842  0.4718500021913030   F   F   F
  0.0833329960168498  0.5833329718811058  0.4718500021913030   F   F   F
  0.3333329839863310  0.5833329718811058  0.4718500021913030   F   F   F
  0.5833329719558051  0.5833329718811058  0.4718500021913030   F   F   F
  0.8333329602266062  0.5833329718811058  0.4718500021913030   F   F   F
  0.0833329960121887  0.8333329598599093  0.4718500021913030   F   F   F
  0.3333329839816628  0.8333329598599093  0.4718500021913030   F   F   F
  0.5833329719511440  0.8333329598599093  0.4718500021913030   F   F   F
  0.8333329597197334  0.8333329598599093  0.4718500021913030   F   F   F
  0.9166670040271470  0.1666669919393300  0.5281500021680117   F   F   F
  0.1666669919966282  0.1666669919393300  0.5281500021680117   F   F   F
  0.4166669799661022  0.1666669919393300  0.5281500021680117   F   F   F
  0.6666669679355834  0.1666669919393300  0.5281500021680117   F   F   F
  0.9166670040224858  0.4166669799181335  0.5281500021680117   F   F   F
  0.1666669919919599  0.4166669799181335  0.5281500021680117   F   F   F
  0.4166669799614411  0.4166669799181335  0.5281500021680117   F   F   F
  0.6666669679309152  0.4166669799181335  0.5281500021680117   F   F   F
  0.9166670040178175  0.6666669678969370  0.5281500021680117   F   F   F
  0.1666669919872987  0.6666669678969370  0.5281500021680117   F   F   F
  0.4166669799567728  0.6666669678969370  0.5281500021680117   F   F   F
  0.6666669679262540  0.6666669678969370  0.5281500021680117   F   F   F
  0.9166670040131564  0.9166669558757405  0.5281500021680117   F   F   F
  0.1666669919826376  0.9166669558757405  0.5281500021680117   F   F   F
  0.4166669799521117  0.9166669558757405  0.5281500021680117   F   F   F
  0.6666669676202659  0.9166669558757405  0.5281500021680117   F   F   F
  0.0004052928391658 -0.0004584043875800  0.5833151423422416   T   T   T
  0.2507862348748384 -0.0005786822261925  0.5832468504233930   T   T   T
  0.5003614693599102 -0.0005287350002568  0.5833232234913669   T   T   T
  0.7502445767615505 -0.0003491755494398  0.5833254540776578   T   T   T
  0.0004989259144761  0.2497357936588142  0.5832999632358263   T   T   T
  0.2505989406471691  0.2492055080569006  0.5832821774989633   T   T   T
  0.5004044508606708  0.2491892811259230  0.5832847125470979   T   T   T
  0.7507223852466252  0.2493207302089058  0.5832736498189054   T   T   T
  0.0004159577375281  0.4999451919353914  0.5833180888412041   T   T   T
  0.2502864215808526  0.4995226034064949  0.5834292451834930   T   T   T
  0.5000446089690315  0.4996027668654205  0.5833179920850738   T   T   T
  0.7502893201148489  0.4994834181911668  0.5832656222452403   T   T   T
  0.0007138198367133  0.7496068640115849  0.5834468875426342   T   T   T
  0.2501634726485142  0.7494249543005781  0.5832835497057566   T   T   T
  0.5005387221523576  0.7493804629229927  0.5833746816152434   T   T   T
  0.7502462135430523  0.7497169060335926  0.5832396730358371   T   T   T

  0.00000000E+00  0.00000000E+00  0.00000000E+00
  0.00000000E+00  0.00000000E+00  0.00000000E+00
  0.00000000E+00  0.00000000E+00  0.00000000E+00
  0.00000000E+00  0.00000000E+00  0.00000000E+00
  0.00000000E+00  0.00000000E+00  0.00000000E+00
  0.00000000E+00  0.00000000E+00  0.00000000E+00
  0.00000000E+00  0.00000000E+00  0.00000000E+00
  0.00000000E+00  0.00000000E+00  0.00000000E+00
  0.00000000E+00  0.00000000E+00  0.00000000E+00
  0.00000000E+00  0.00000000E+00  0.00000000E+00
  0.00000000E+00  0.00000000E+00  0.00000000E+00
  0.00000000E+00  0.00000000E+00  0.00000000E+00
  0.00000000E+00  0.00000000E+00  0.00000000E+00
  0.00000000E+00  0.00000000E+00  0.00000000E+00
  0.00000000E+00  0.00000000E+00  0.00000000E+00
  0.00000000E+00  0.00000000E+00  0.00000000E+00
  0.00000000E+00  0.00000000E+00  0.00000000E+00
  0.00000000E+00  0.00000000E+00  0.00000000E+00
  0.00000000E+00  0.00000000E+00  0.00000000E+00
  0.00000000E+00  0.00000000E+00  0.00000000E+00
  0.00000000E+00  0.00000000E+00  0.00000000E+00
  0.00000000E+00  0.00000000E+00  0.00000000E+00
  0.00000000E+00  0.00000000E+00  0.00000000E+00
  0.00000000E+00  0.00000000E+00  0.00000000E+00
  0.00000000E+00  0.00000000E+00  0.00000000E+00
  0.00000000E+00  0.00000000E+00  0.00000000E+00
  0.00000000E+00  0.00000000E+00  0.00000000E+00
  0.00000000E+00  0.00000000E+00  0.00000000E+00
  0.00000000E+00  0.00000000E+00  0.00000000E+00
  0.00000000E+00  0.00000000E+00  0.00000000E+00
  0.00000000E+00  0.00000000E+00  0.00000000E+00
  0.00000000E+00  0.00000000E+00  0.00000000E+00
  0.00000000E+00  0.00000000E+00  0.00000000E+00
  0.00000000E+00  0.00000000E+00  0.00000000E+00
  0.00000000E+00  0.00000000E+00  0.00000000E+00
  0.00000000E+00  0.00000000E+00  0.00000000E+00
  0.00000000E+00  0.00000000E+00  0.00000000E+00
  0.00000000E+00  0.00000000E+00  0.00000000E+00
  0.00000000E+00  0.00000000E+00  0.00000000E+00
  0.00000000E+00  0.00000000E+00  0.00000000E+00
  0.00000000E+00  0.00000000E+00  0.00000000E+00
  0.00000000E+00  0.00000000E+00  0.00000000E+00
  0.00000000E+00  0.00000000E+00  0.00000000E+00
  0.00000000E+00  0.00000000E+00  0.00000000E+00
  0.00000000E+00  0.00000000E+00  0.00000000E+00
  0.00000000E+00  0.00000000E+00  0.00000000E+00
  0.00000000E+00  0.00000000E+00  0.00000000E+00
  0.00000000E+00  0.00000000E+00  0.00000000E+00
  0.00000000E+00  0.00000000E+00  0.00000000E+00
  0.00000000E+00  0.00000000E+00  0.00000000E+00
  0.00000000E+00  0.00000000E+00  0.00000000E+00
  0.00000000E+00  0.00000000E+00  0.00000000E+00
  0.00000000E+00  0.00000000E+00  0.00000000E+00
  0.00000000E+00  0.00000000E+00  0.00000000E+00
  0.00000000E+00  0.00000000E+00  0.00000000E+00
  0.00000000E+00  0.00000000E+00  0.00000000E+00
  0.00000000E+00  0.00000000E+00  0.00000000E+00
  0.00000000E+00  0.00000000E+00  0.00000000E+00
  0.00000000E+00  0.00000000E+00  0.00000000E+00
  0.00000000E+00  0.00000000E+00  0.00000000E+00
  0.00000000E+00  0.00000000E+00  0.00000000E+00
  0.00000000E+00  0.00000000E+00  0.00000000E+00
  0.00000000E+00  0.00000000E+00  0.00000000E+00
  0.00000000E+00  0.00000000E+00  0.00000000E+00
