Ni   C    O    H                        
   1.0000000000000000     
     9.9560634791065894    0.0000000000000000    0.0000000000000000
     4.9780317395532903    8.6222038945967903    0.0000000000000000
     0.0000000000000000    0.0000000000000000   36.0968188426423993
   Ni   C    O    H 
    64     5     2     5
Selective dynamics
Direct
  0.0000000000000000  0.0000000000000000  0.4155490839999985   F   F   F
  0.2500000000000000  0.0000000000000000  0.4155490839999985   F   F   F
  0.5000000000000000  0.0000000000000000  0.4155490839999985   F   F   F
  0.7500000000000000  0.0000000000000000  0.4155490839999985   F   F   F
  0.0000000000000000  0.2500000000000000  0.4155490839999985   F   F   F
  0.2500000000000000  0.2500000000000000  0.4155490839999985   F   F   F
  0.5000000000000000  0.2500000000000000  0.4155490839999985   F   F   F
  0.7500000000000000  0.2500000000000000  0.4155490839999985   F   F   F
  0.0000000000397407  0.5000000000000000  0.4155490839999985   F   F   F
  0.2500000000000000  0.5000000000000000  0.4155490839999985   F   F   F
  0.5000000000000000  0.5000000000000000  0.4155490839999985   F   F   F
  0.7500000000000000  0.5000000000000000  0.4155490839999985   F   F   F
  0.0000000000306102  0.7500000000000000  0.4155490839999985   F   F   F
  0.2500000000000000  0.7500000000000000  0.4155490839999985   F   F   F
  0.5000000000000000  0.7500000000000000  0.4155490839999985   F   F   F
  0.7500000000000000  0.7500000000000000  0.4155490839999985   F   F   F
  0.0833333329999988  0.0833333329999988  0.4718496950000031   F   F   F
  0.3333333329999988  0.0833333329999988  0.4718496950000031   F   F   F
  0.5833333329999988  0.0833333329999988  0.4718496950000031   F   F   F
  0.8333333329999988  0.0833333329999988  0.4718496950000031   F   F   F
  0.0833333329999988  0.3333333329999988  0.4718496950000031   F   F   F
  0.3333333329999988  0.3333333329999988  0.4718496950000031   F   F   F
  0.5833333329999988  0.3333333329999988  0.4718496950000031   F   F   F
  0.8333333329999988  0.3333333329999988  0.4718496950000031   F   F   F
  0.0833333329999988  0.5833333329999988  0.4718496950000031   F   F   F
  0.3333333329999988  0.5833333329999988  0.4718496950000031   F   F   F
  0.5833333329999988  0.5833333329999988  0.4718496950000031   F   F   F
  0.8333333329999988  0.5833333329999988  0.4718496950000031   F   F   F
  0.0833333329999988  0.8333333329999988  0.4718496950000031   F   F   F
  0.3333333329999988  0.8333333329999988  0.4718496950000031   F   F   F
  0.5833333329999988  0.8333333329999988  0.4718496950000031   F   F   F
  0.8333333329999988  0.8333333329999988  0.4718496950000031   F   F   F
  0.9166666670000012  0.1666666670000012  0.5281503060000006   F   F   F
  0.1666666670000012  0.1666666670000012  0.5281503060000006   F   F   F
  0.4166666670000012  0.1666666670000012  0.5281503060000006   F   F   F
  0.6666666670000012  0.1666666670000012  0.5281503060000006   F   F   F
  0.9166666670000012  0.4166666670000012  0.5281503060000006   F   F   F
  0.1666666670000012  0.4166666670000012  0.5281503060000006   F   F   F
  0.4166666670000012  0.4166666670000012  0.5281503060000006   F   F   F
  0.6666666670000012  0.4166666670000012  0.5281503060000006   F   F   F
  0.9166666670000012  0.6666666670000012  0.5281503060000006   F   F   F
  0.1666666670000012  0.6666666670000012  0.5281503060000006   F   F   F
  0.4166666670000012  0.6666666670000012  0.5281503060000006   F   F   F
  0.6666666670000012  0.6666666670000012  0.5281503060000006   F   F   F
  0.9166666670000012  0.9166666670000012  0.5281503060000006   F   F   F
  0.1666666670000012  0.9166666670000012  0.5281503060000006   F   F   F
  0.4166666670000012  0.9166666670000012  0.5281503060000006   F   F   F
  0.6666666659999976  0.9166666670000012  0.5281503060000006   F   F   F
  0.0019596550000003  0.0002108130000025  0.5826771280000003   F   F   F
  0.2513911630000010  0.0017216780000027  0.5828463360000029   F   F   F
  0.4998899140000006  0.0009865199999979  0.5831380930000023   F   F   F
  0.7505508719999980  0.0002795509999984  0.5838155559999976   F   F   F
  0.0044614629999984  0.2487268670000020  0.5825664159999988   F   F   F
  0.2517541710000017  0.2489905469999982  0.5833154019999967   F   F   F
  0.5022405739999982  0.2462609139999969  0.5823440970000036   F   F   F
  0.7593593730000023  0.2419593190000029  0.5858846679999985   F   F   F
  0.0023743289999985  0.4983796010000034  0.5827225339999984   F   F   F
  0.2494025809999982  0.4969891189999984  0.5833501620000021   F   F   F
  0.4935449520000006  0.5022669100000030  0.5837091109999974   F   F   F
  0.7498156289999969  0.4979956259999980  0.5861940959999998   F   F   F
  0.9992892719999986  0.7490457910000003  0.5834785509999989   F   F   F
  0.2464273069999976  0.7547103240000013  0.5856046700000022   F   F   F
  0.5022993339999999  0.7538267649999995  0.5824694200000025   F   F   F
  0.7513942459999967  0.7495351680000013  0.5833716949999967   F   F   F
  0.3552587670000023  0.5729520269999995  0.6380870599999966   F   F   F
  0.5210031149999992  0.4904710890000032  0.6397472570000033   F   F   F
  0.6280668019999993  0.5493413450000020  0.6369078190000010   F   F   F
  0.7578884639999970  0.2793830299999982  0.6403966499999996   F   F   F
  0.7812232400000028  0.4132106480000033  0.6388049930000008   F   F   F
  0.2750598470000014  0.7255964399999968  0.6382035310000020   F   F   F
  0.5992733280000024  0.3352522619999974  0.6498877260000029   F   F   F
  0.2963771639999990  0.5065318420000011  0.6453933610000036   F   F   F
  0.8351939260000023  0.1753910340000004  0.6561028429999993   F   F   F
  0.8831653200000034  0.4111647329999997  0.6505189470000019   F   F   F
  0.5973975969999969  0.6652587430000025  0.6465853220000000   F   F   F
  0.8328392829999984  0.8331127900000013  0.6091335679999972   F   F   F

  0.00000000E+00  0.00000000E+00  0.00000000E+00
  0.00000000E+00  0.00000000E+00  0.00000000E+00
  0.00000000E+00  0.00000000E+00  0.00000000E+00
  0.00000000E+00  0.00000000E+00  0.00000000E+00
  0.00000000E+00  0.00000000E+00  0.00000000E+00
  0.00000000E+00  0.00000000E+00  0.00000000E+00
  0.00000000E+00  0.00000000E+00  0.00000000E+00
  0.00000000E+00  0.00000000E+00  0.00000000E+00
  0.00000000E+00  0.00000000E+00  0.00000000E+00
  0.00000000E+00  0.00000000E+00  0.00000000E+00
  0.00000000E+00  0.00000000E+00  0.00000000E+00
  0.00000000E+00  0.00000000E+00  0.00000000E+00
  0.00000000E+00  0.00000000E+00  0.00000000E+00
  0.00000000E+00  0.00000000E+00  0.00000000E+00
  0.00000000E+00  0.00000000E+00  0.00000000E+00
  0.00000000E+00  0.00000000E+00  0.00000000E+00
  0.00000000E+00  0.00000000E+00  0.00000000E+00
  0.00000000E+00  0.00000000E+00  0.00000000E+00
  0.00000000E+00  0.00000000E+00  0.00000000E+00
  0.00000000E+00  0.00000000E+00  0.00000000E+00
  0.00000000E+00  0.00000000E+00  0.00000000E+00
  0.00000000E+00  0.00000000E+00  0.00000000E+00
  0.00000000E+00  0.00000000E+00  0.00000000E+00
  0.00000000E+00  0.00000000E+00  0.00000000E+00
  0.00000000E+00  0.00000000E+00  0.00000000E+00
  0.00000000E+00  0.00000000E+00  0.00000000E+00
  0.00000000E+00  0.00000000E+00  0.00000000E+00
  0.00000000E+00  0.00000000E+00  0.00000000E+00
  0.00000000E+00  0.00000000E+00  0.00000000E+00
  0.00000000E+00  0.00000000E+00  0.00000000E+00
  0.00000000E+00  0.00000000E+00  0.00000000E+00
  0.00000000E+00  0.00000000E+00  0.00000000E+00
  0.00000000E+00  0.00000000E+00  0.00000000E+00
  0.00000000E+00  0.00000000E+00  0.00000000E+00
  0.00000000E+00  0.00000000E+00  0.00000000E+00
  0.00000000E+00  0.00000000E+00  0.00000000E+00
  0.00000000E+00  0.00000000E+00  0.00000000E+00
  0.00000000E+00  0.00000000E+00  0.00000000E+00
  0.00000000E+00  0.00000000E+00  0.00000000E+00
  0.00000000E+00  0.00000000E+00  0.00000000E+00
  0.00000000E+00  0.00000000E+00  0.00000000E+00
  0.00000000E+00  0.00000000E+00  0.00000000E+00
  0.00000000E+00  0.00000000E+00  0.00000000E+00
  0.00000000E+00  0.00000000E+00  0.00000000E+00
  0.00000000E+00  0.00000000E+00  0.00000000E+00
  0.00000000E+00  0.00000000E+00  0.00000000E+00
  0.00000000E+00  0.00000000E+00  0.00000000E+00
  0.00000000E+00  0.00000000E+00  0.00000000E+00
  0.00000000E+00  0.00000000E+00  0.00000000E+00
  0.00000000E+00  0.00000000E+00  0.00000000E+00
  0.00000000E+00  0.00000000E+00  0.00000000E+00
  0.00000000E+00  0.00000000E+00  0.00000000E+00
  0.00000000E+00  0.00000000E+00  0.00000000E+00
  0.00000000E+00  0.00000000E+00  0.00000000E+00
  0.00000000E+00  0.00000000E+00  0.00000000E+00
  0.00000000E+00  0.00000000E+00  0.00000000E+00
  0.00000000E+00  0.00000000E+00  0.00000000E+00
  0.00000000E+00  0.00000000E+00  0.00000000E+00
  0.00000000E+00  0.00000000E+00  0.00000000E+00
  0.00000000E+00  0.00000000E+00  0.00000000E+00
  0.00000000E+00  0.00000000E+00  0.00000000E+00
  0.00000000E+00  0.00000000E+00  0.00000000E+00
  0.00000000E+00  0.00000000E+00  0.00000000E+00
  0.00000000E+00  0.00000000E+00  0.00000000E+00
  0.00000000E+00  0.00000000E+00  0.00000000E+00
  0.00000000E+00  0.00000000E+00  0.00000000E+00
  0.00000000E+00  0.00000000E+00  0.00000000E+00
  0.00000000E+00  0.00000000E+00  0.00000000E+00
  0.00000000E+00  0.00000000E+00  0.00000000E+00
  0.00000000E+00  0.00000000E+00  0.00000000E+00
  0.00000000E+00  0.00000000E+00  0.00000000E+00
  0.00000000E+00  0.00000000E+00  0.00000000E+00
  0.00000000E+00  0.00000000E+00  0.00000000E+00
  0.00000000E+00  0.00000000E+00  0.00000000E+00
  0.00000000E+00  0.00000000E+00  0.00000000E+00
  0.00000000E+00  0.00000000E+00  0.00000000E+00
