Ni   C    O    H                        
   1.0000000000000000     
     9.9560634791065894    0.0000000000000000    0.0000000000000000
     4.9780317395532903    8.6222038945967903    0.0000000000000000
     0.0000000000000000    0.0000000000000000   36.0968188426423993
   Ni   C    O    H 
    64     5     2     4
Selective dynamics
Direct
  0.0000000000000000  0.0000000000000000  0.4155490839999985   F   F   F
  0.2500000000000000  0.0000000000000000  0.4155490839999985   F   F   F
  0.5000000000000000  0.0000000000000000  0.4155490839999985   F   F   F
  0.7500000000000000  0.0000000000000000  0.4155490839999985   F   F   F
  0.0000000000000000  0.2500000000000000  0.4155490839999985   F   F   F
  0.2500000000000000  0.2500000000000000  0.4155490839999985   F   F   F
  0.5000000000000000  0.2500000000000000  0.4155490839999985   F   F   F
  0.7500000000000000  0.2500000000000000  0.4155490839999985   F   F   F
  0.0000000000397407  0.5000000000000000  0.4155490839999985   F   F   F
  0.2500000000000000  0.5000000000000000  0.4155490839999985   F   F   F
  0.5000000000000000  0.5000000000000000  0.4155490839999985   F   F   F
  0.7500000000000000  0.5000000000000000  0.4155490839999985   F   F   F
  0.0000000000306102  0.7500000000000000  0.4155490839999985   F   F   F
  0.2500000000000000  0.7500000000000000  0.4155490839999985   F   F   F
  0.5000000000000000  0.7500000000000000  0.4155490839999985   F   F   F
  0.7500000000000000  0.7500000000000000  0.4155490839999985   F   F   F
  0.0833333329999988  0.0833333329999988  0.4718496950000031   F   F   F
  0.3333333329999988  0.0833333329999988  0.4718496950000031   F   F   F
  0.5833333329999988  0.0833333329999988  0.4718496950000031   F   F   F
  0.8333333329999988  0.0833333329999988  0.4718496950000031   F   F   F
  0.0833333329999988  0.3333333329999988  0.4718496950000031   F   F   F
  0.3333333329999988  0.3333333329999988  0.4718496950000031   F   F   F
  0.5833333329999988  0.3333333329999988  0.4718496950000031   F   F   F
  0.8333333329999988  0.3333333329999988  0.4718496950000031   F   F   F
  0.0833333329999988  0.5833333329999988  0.4718496950000031   F   F   F
  0.3333333329999988  0.5833333329999988  0.4718496950000031   F   F   F
  0.5833333329999988  0.5833333329999988  0.4718496950000031   F   F   F
  0.8333333329999988  0.5833333329999988  0.4718496950000031   F   F   F
  0.0833333329999988  0.8333333329999988  0.4718496950000031   F   F   F
  0.3333333329999988  0.8333333329999988  0.4718496950000031   F   F   F
  0.5833333329999988  0.8333333329999988  0.4718496950000031   F   F   F
  0.8333333329999988  0.8333333329999988  0.4718496950000031   F   F   F
  0.9166666670000012  0.1666666670000012  0.5281503060000006   F   F   F
  0.1666666670000012  0.1666666670000012  0.5281503060000006   F   F   F
  0.4166666670000012  0.1666666670000012  0.5281503060000006   F   F   F
  0.6666666670000012  0.1666666670000012  0.5281503060000006   F   F   F
  0.9166666670000012  0.4166666670000012  0.5281503060000006   F   F   F
  0.1666666670000012  0.4166666670000012  0.5281503060000006   F   F   F
  0.4166666670000012  0.4166666670000012  0.5281503060000006   F   F   F
  0.6666666670000012  0.4166666670000012  0.5281503060000006   F   F   F
  0.9166666670000012  0.6666666670000012  0.5281503060000006   F   F   F
  0.1666666670000012  0.6666666670000012  0.5281503060000006   F   F   F
  0.4166666670000012  0.6666666670000012  0.5281503060000006   F   F   F
  0.6666666670000012  0.6666666670000012  0.5281503060000006   F   F   F
  0.9166666670000012  0.9166666670000012  0.5281503060000006   F   F   F
  0.1666666670000012  0.9166666670000012  0.5281503060000006   F   F   F
  0.4166666670000012  0.9166666670000012  0.5281503060000006   F   F   F
  0.6666666659999976  0.9166666670000012  0.5281503060000006   F   F   F
  0.0011840080000027  0.9992293520000004  0.5827327849999975   F   F   F
  0.2513487690000034  0.0017207040000002  0.5828057160000029   F   F   F
  0.5013902230000014  0.0001463299999998  0.5832689559999977   F   F   F
  0.7512011150000006  0.9983557859999976  0.5831447830000016   F   F   F
  0.0044391520000033  0.2487639739999992  0.5825488280000002   F   F   F
  0.2513953389999983  0.2490152530000032  0.5832898689999979   F   F   F
  0.5021747730000001  0.2462316650000034  0.5824677490000028   F   F   F
  0.7593699909999998  0.2416993679999990  0.5859154139999987   F   F   F
  0.0013481000000013  0.5001844379999980  0.5828373200000030   F   F   F
  0.2492983100000004  0.4970319780000025  0.5835189740000004   F   F   F
  0.4934698819999994  0.5024354939999967  0.5836181439999990   F   F   F
  0.7499386989999977  0.4979780190000014  0.5862173829999975   F   F   F
  0.9976429760000016  0.7499972549999967  0.5828453660000008   F   F   F
  0.2461968220000017  0.7549452160000030  0.5856916749999996   F   F   F
  0.5023251340000030  0.7538301109999992  0.5825367560000032   F   F   F
  0.7521230409999973  0.7507785499999997  0.5827506540000016   F   F   F
  0.3550157170000006  0.5730263820000019  0.6380914940000011   F   F   F
  0.5208536430000024  0.4903729939999977  0.6396888180000033   F   F   F
  0.6281026079999990  0.5491859770000005  0.6368753240000018   F   F   F
  0.7577886750000005  0.2792247989999979  0.6403826960000032   F   F   F
  0.7811549879999973  0.4130299380000011  0.6388410089999965   F   F   F
  0.2751818520000029  0.7257217189999992  0.6382587000000015   F   F   F
  0.5990980170000029  0.3350813819999985  0.6497376949999989   F   F   F
  0.2961189899999965  0.5066740749999994  0.6453716999999983   F   F   F
  0.8349284430000026  0.1750339689999976  0.6560821529999998   F   F   F
  0.8834168939999998  0.4106766140000033  0.6504648379999978   F   F   F
  0.5974444220000024  0.6649884650000004  0.6466144350000036   F   F   F

  0.00000000E+00  0.00000000E+00  0.00000000E+00
  0.00000000E+00  0.00000000E+00  0.00000000E+00
  0.00000000E+00  0.00000000E+00  0.00000000E+00
  0.00000000E+00  0.00000000E+00  0.00000000E+00
  0.00000000E+00  0.00000000E+00  0.00000000E+00
  0.00000000E+00  0.00000000E+00  0.00000000E+00
  0.00000000E+00  0.00000000E+00  0.00000000E+00
  0.00000000E+00  0.00000000E+00  0.00000000E+00
  0.00000000E+00  0.00000000E+00  0.00000000E+00
  0.00000000E+00  0.00000000E+00  0.00000000E+00
  0.00000000E+00  0.00000000E+00  0.00000000E+00
  0.00000000E+00  0.00000000E+00  0.00000000E+00
  0.00000000E+00  0.00000000E+00  0.00000000E+00
  0.00000000E+00  0.00000000E+00  0.00000000E+00
  0.00000000E+00  0.00000000E+00  0.00000000E+00
  0.00000000E+00  0.00000000E+00  0.00000000E+00
  0.00000000E+00  0.00000000E+00  0.00000000E+00
  0.00000000E+00  0.00000000E+00  0.00000000E+00
  0.00000000E+00  0.00000000E+00  0.00000000E+00
  0.00000000E+00  0.00000000E+00  0.00000000E+00
  0.00000000E+00  0.00000000E+00  0.00000000E+00
  0.00000000E+00  0.00000000E+00  0.00000000E+00
  0.00000000E+00  0.00000000E+00  0.00000000E+00
  0.00000000E+00  0.00000000E+00  0.00000000E+00
  0.00000000E+00  0.00000000E+00  0.00000000E+00
  0.00000000E+00  0.00000000E+00  0.00000000E+00
  0.00000000E+00  0.00000000E+00  0.00000000E+00
  0.00000000E+00  0.00000000E+00  0.00000000E+00
  0.00000000E+00  0.00000000E+00  0.00000000E+00
  0.00000000E+00  0.00000000E+00  0.00000000E+00
  0.00000000E+00  0.00000000E+00  0.00000000E+00
  0.00000000E+00  0.00000000E+00  0.00000000E+00
  0.00000000E+00  0.00000000E+00  0.00000000E+00
  0.00000000E+00  0.00000000E+00  0.00000000E+00
  0.00000000E+00  0.00000000E+00  0.00000000E+00
  0.00000000E+00  0.00000000E+00  0.00000000E+00
  0.00000000E+00  0.00000000E+00  0.00000000E+00
  0.00000000E+00  0.00000000E+00  0.00000000E+00
  0.00000000E+00  0.00000000E+00  0.00000000E+00
  0.00000000E+00  0.00000000E+00  0.00000000E+00
  0.00000000E+00  0.00000000E+00  0.00000000E+00
  0.00000000E+00  0.00000000E+00  0.00000000E+00
  0.00000000E+00  0.00000000E+00  0.00000000E+00
  0.00000000E+00  0.00000000E+00  0.00000000E+00
  0.00000000E+00  0.00000000E+00  0.00000000E+00
  0.00000000E+00  0.00000000E+00  0.00000000E+00
  0.00000000E+00  0.00000000E+00  0.00000000E+00
  0.00000000E+00  0.00000000E+00  0.00000000E+00
  0.00000000E+00  0.00000000E+00  0.00000000E+00
  0.00000000E+00  0.00000000E+00  0.00000000E+00
  0.00000000E+00  0.00000000E+00  0.00000000E+00
  0.00000000E+00  0.00000000E+00  0.00000000E+00
  0.00000000E+00  0.00000000E+00  0.00000000E+00
  0.00000000E+00  0.00000000E+00  0.00000000E+00
  0.00000000E+00  0.00000000E+00  0.00000000E+00
  0.00000000E+00  0.00000000E+00  0.00000000E+00
  0.00000000E+00  0.00000000E+00  0.00000000E+00
  0.00000000E+00  0.00000000E+00  0.00000000E+00
  0.00000000E+00  0.00000000E+00  0.00000000E+00
  0.00000000E+00  0.00000000E+00  0.00000000E+00
  0.00000000E+00  0.00000000E+00  0.00000000E+00
  0.00000000E+00  0.00000000E+00  0.00000000E+00
  0.00000000E+00  0.00000000E+00  0.00000000E+00
  0.00000000E+00  0.00000000E+00  0.00000000E+00
  0.00000000E+00  0.00000000E+00  0.00000000E+00
  0.00000000E+00  0.00000000E+00  0.00000000E+00
  0.00000000E+00  0.00000000E+00  0.00000000E+00
  0.00000000E+00  0.00000000E+00  0.00000000E+00
  0.00000000E+00  0.00000000E+00  0.00000000E+00
  0.00000000E+00  0.00000000E+00  0.00000000E+00
  0.00000000E+00  0.00000000E+00  0.00000000E+00
  0.00000000E+00  0.00000000E+00  0.00000000E+00
  0.00000000E+00  0.00000000E+00  0.00000000E+00
  0.00000000E+00  0.00000000E+00  0.00000000E+00
  0.00000000E+00  0.00000000E+00  0.00000000E+00
